
Log started (V12.9.0.0) Thu Nov 14 17:23:02 2019

Warning: 'End' missing.

Problem 'C:\OperationsOptimization\TestCPlex.lp' read.
Read time = 0.00 sec. (0.00 ticks)
Tried aggregator 1 time.
LP Presolve eliminated 2 rows and 2 columns.
All rows and columns eliminated.
Presolve time = 0.00 sec. (0.00 ticks)

Dual simplex - Optimal:  Objective =  3.8000000000e+01
Solution time =    0.00 sec.  Iterations = 0 (0)
Deterministic time = 0.00 ticks  (1.18 ticks/sec)


Solution written to file 'C:\OperationsOptimization\CPlexOut.SOL'.
